\ Model mip1
\ LP format - for model browsing. Use MPS format to capture full model detail.
Maximize
  0.2740901019684013 f(x_0) + 0.6162031412231082 f(x_1)
   + 0.6503909249968027 f(x_2) + 0.4329648325982931 f(x_3)
   + 0.550143164392894 f(x_4) + 0.6350735809516417 f(x_5)
   + 0.6054102388763827 f(x_6) + 0.680799454157636 f(x_7)
   + 0.2595338191612553 f(x_8) + 0.7157078909181365 f(x_9)
   + 0.7094462753610757 f(x_10) + 0.684716835928894 f(x_11)
   + 0.4337653471654024 f(x_12) + 0.4830262240487318 f(x_13)
   + 0.6145534010576102 f(x_14) + 0.6551072063126524 f(x_15)
   + 0.4099987797216698 f(x_16) + 0.5805073616234608 f(x_17)
   + 0.5380780274651986 f(x_18) + 0.2710722128371072 f(x_19)
   + 0.4557087835272667 f(x_20) + 0.6931879315255585 f(x_21)
   + 0.4801258113308867 f(x_22) + 0.4705938169143217 f(x_23)
   + 0.7227656487822967 f(x_24) + 0.7027179295637215 f(x_25)
   + 0.716663156139127 f(x_26) + 0.6662152574316456 f(x_27)
   + 0.5870727815323333 f(x_28) + 0.338944317270121 f(x_29)
   + 0.3336680144004014 f(x_30) + 0.5657767460888953 f(x_31)
   + 0.6628991168445996 f(x_32) + 0.2680685561753504 f(x_33)
   + 0.5235570785928345 f(x_34) + 0.5991572531535576 f(x_35)
   + 0.6785458491144727 f(x_36) + 0.6804654548557441 f(x_37)
   + 0.4007655881564744 f(x_38) + 0.7464011273613163 f(x_39)
   + 0.5096572635530395 f(x_40) + 0.2851120038894695 f(x_41)
   + 0.3775043990214197 f(x_42) + 0.7492595300212854 f(x_43)
   + 0.6933507934141663 f(x_44) + 0.5033847800660853 f(x_45)
   + 0.302398504557898 f(x_46) + 0.2932845348186549 f(x_47)
   + 0.6939600148315251 f(x_48) + 0.5693353769576379 f(x_49)
   + 0.3178484798257937 f(x_50) + 0.3039437294239171 f(x_51)
   + 0.3300186837638538 f(x_52) + 0.3286493531143164 f(x_53)
   + 0.5091263407028577 f(x_54) + 0.4937199717863555 f(x_55)
   + 0.7235483095727491 f(x_56) + 0.4052330038968141 f(x_57)
   + 0.3576317644054316 f(x_58) + 0.3848508858744885 f(x_59)
   + 0.2733213676998387 f(x_60) + 0.4938515274777635 f(x_61)
   + 0.5471396859052533 f(x_62) + 0.7416746425278091 f(x_63)
   + 0.6938601631973343 f(x_64) + 0.4951095192926015 f(x_65)
   + 0.2536696813671831 f(x_66) + 0.5525572624921431 f(x_67)
   + 0.3245665443277032 f(x_68) + 0.4482350055951261 f(x_69)
   + 0.5690088471370529 f(x_70) + 0.4548158576704863 f(x_71)
   + 0.7314646114968475 f(x_72) + 0.7442699236755024 f(x_73)
   + 0.4849952179339199 f(x_74) + 0.366317779124973 f(x_75)
   + 0.3712657821331673 f(x_76) + 0.287477926494053 f(x_77)
   + 0.7440069078925635 f(x_78) + 0.40204048994703 f(x_79)
   + 0.5322597262101066 f(x_80) + 0.3648016928545787 f(x_81)
   + 0.745241357532816 f(x_82) + 0.262354445919421 f(x_83)
   + 0.2841827355227529 f(x_84) + 0.3461881155088035 f(x_85)
   + 0.5125132258821329 f(x_86) + 0.7451544419988594 f(x_87)
   + 0.4083429002041869 f(x_88) + 0.6899159656249771 f(x_89)
   + 0.5478123292678578 f(x_90) + 0.5488062300619189 f(x_91)
   + 0.412877613846409 f(x_92) + 0.6373029017287521 f(x_93)
   + 0.4831824360226053 f(x_94) + 0.4222973484705804 f(x_95)
   + 0.3863241235189989 f(x_96) + 0.336721445028631 f(x_97)
   + 0.3845793104152029 f(x_98) + 0.5288426160822073 f(x_99)
Subject To
 constr_x_0: - x_0 + f(x_0) = 0
 constr_x_1: - x_1 + f(x_1) = 0
 constr_x_2: - x_2 + f(x_2) = 0
 constr_x_3: - x_3 + f(x_3) = 0
 constr_x_4: - x_4 + f(x_4) = 0
 constr_x_5: - x_5 + f(x_5) = 0
 constr_x_6: - x_6 + f(x_6) = 0
 constr_x_7: - x_7 + f(x_7) = 0
 constr_x_8: - x_8 + f(x_8) = 0
 constr_x_9: - x_9 + f(x_9) = 0
 constr_x_10: - x_10 + f(x_10) = 0
 constr_x_11: - x_11 + f(x_11) = 0
 constr_x_12: - x_12 + f(x_12) = 0
 constr_x_13: - x_13 + f(x_13) = 0
 constr_x_14: - x_14 + f(x_14) = 0
 constr_x_15: - x_15 + f(x_15) = 0
 constr_x_16: - x_16 + f(x_16) = 0
 constr_x_17: - x_17 + f(x_17) = 0
 constr_x_18: - x_18 + f(x_18) = 0
 constr_x_19: - x_19 + f(x_19) = 0
 constr_x_20: - x_20 + f(x_20) = 0
 constr_x_21: - x_21 + f(x_21) = 0
 constr_x_22: - x_22 + f(x_22) = 0
 constr_x_23: - x_23 + f(x_23) = 0
 constr_x_24: - x_24 + f(x_24) = 0
 constr_x_25: - x_25 + f(x_25) = 0
 constr_x_26: - x_26 + f(x_26) = 0
 constr_x_27: - x_27 + f(x_27) = 0
 constr_x_28: - x_28 + f(x_28) = 0
 constr_x_29: - x_29 + f(x_29) = 0
 constr_x_30: - x_30 + f(x_30) = 0
 constr_x_31: - x_31 + f(x_31) = 0
 constr_x_32: - x_32 + f(x_32) = 0
 constr_x_33: - x_33 + f(x_33) = 0
 constr_x_34: - x_34 + f(x_34) = 0
 constr_x_35: - x_35 + f(x_35) = 0
 constr_x_36: - x_36 + f(x_36) = 0
 constr_x_37: - x_37 + f(x_37) = 0
 constr_x_38: - x_38 + f(x_38) = 0
 constr_x_39: - x_39 + f(x_39) = 0
 constr_x_40: - x_40 + f(x_40) = 0
 constr_x_41: - x_41 + f(x_41) = 0
 constr_x_42: - x_42 + f(x_42) = 0
 constr_x_43: - x_43 + f(x_43) = 0
 constr_x_44: - x_44 + f(x_44) = 0
 constr_x_45: - x_45 + f(x_45) = 0
 constr_x_46: - x_46 + f(x_46) = 0
 constr_x_47: - x_47 + f(x_47) = 0
 constr_x_48: - x_48 + f(x_48) = 0
 constr_x_49: - x_49 + f(x_49) = 0
 constr_x_50: - x_50 + f(x_50) = 0
 constr_x_51: - x_51 + f(x_51) = 0
 constr_x_52: - x_52 + f(x_52) = 0
 constr_x_53: - x_53 + f(x_53) = 0
 constr_x_54: - x_54 + f(x_54) = 0
 constr_x_55: - x_55 + f(x_55) = 0
 constr_x_56: - x_56 + f(x_56) = 0
 constr_x_57: - x_57 + f(x_57) = 0
 constr_x_58: - x_58 + f(x_58) = 0
 constr_x_59: - x_59 + f(x_59) = 0
 constr_x_60: - x_60 + f(x_60) = 0
 constr_x_61: - x_61 + f(x_61) = 0
 constr_x_62: - x_62 + f(x_62) = 0
 constr_x_63: - x_63 + f(x_63) = 0
 constr_x_64: - x_64 + f(x_64) = 0
 constr_x_65: - x_65 + f(x_65) = 0
 constr_x_66: - x_66 + f(x_66) = 0
 constr_x_67: - x_67 + f(x_67) = 0
 constr_x_68: - x_68 + f(x_68) = 0
 constr_x_69: - x_69 + f(x_69) = 0
 constr_x_70: - x_70 + f(x_70) = 0
 constr_x_71: - x_71 + f(x_71) = 0
 constr_x_72: - x_72 + f(x_72) = 0
 constr_x_73: - x_73 + f(x_73) = 0
 constr_x_74: - x_74 + f(x_74) = 0
 constr_x_75: - x_75 + f(x_75) = 0
 constr_x_76: - x_76 + f(x_76) = 0
 constr_x_77: - x_77 + f(x_77) = 0
 constr_x_78: - x_78 + f(x_78) = 0
 constr_x_79: - x_79 + f(x_79) = 0
 constr_x_80: - x_80 + f(x_80) = 0
 constr_x_81: - x_81 + f(x_81) = 0
 constr_x_82: - x_82 + f(x_82) = 0
 constr_x_83: - x_83 + f(x_83) = 0
 constr_x_84: - x_84 + f(x_84) = 0
 constr_x_85: - x_85 + f(x_85) = 0
 constr_x_86: - x_86 + f(x_86) = 0
 constr_x_87: - x_87 + f(x_87) = 0
 constr_x_88: - x_88 + f(x_88) = 0
 constr_x_89: - x_89 + f(x_89) = 0
 constr_x_90: - x_90 + f(x_90) = 0
 constr_x_91: - x_91 + f(x_91) = 0
 constr_x_92: - x_92 + f(x_92) = 0
 constr_x_93: - x_93 + f(x_93) = 0
 constr_x_94: - x_94 + f(x_94) = 0
 constr_x_95: - x_95 + f(x_95) = 0
 constr_x_96: - x_96 + f(x_96) = 0
 constr_x_97: - x_97 + f(x_97) = 0
 constr_x_98: - x_98 + f(x_98) = 0
 constr_x_99: - x_99 + f(x_99) = 0
 R100: x_0 + x_1 + x_2 + x_3 + x_4 + x_5 + x_6 + x_7 + x_8 + x_9 + x_10
   + x_11 + x_12 + x_13 + x_14 + x_15 + x_16 + x_17 + x_18 + x_19 + x_20
   + x_21 + x_22 + x_23 + x_24 + x_25 + x_26 + x_27 + x_28 + x_29 + x_30
   + x_31 + x_32 + x_33 + x_34 + x_35 + x_36 + x_37 + x_38 + x_39 + x_40
   + x_41 + x_42 + x_43 + x_44 + x_45 + x_46 + x_47 + x_48 + x_49 + x_50
   + x_51 + x_52 + x_53 + x_54 + x_55 + x_56 + x_57 + x_58 + x_59 + x_60
   + x_61 + x_62 + x_63 + x_64 + x_65 + x_66 + x_67 + x_68 + x_69 + x_70
   + x_71 + x_72 + x_73 + x_74 + x_75 + x_76 + x_77 + x_78 + x_79 + x_80
   + x_81 + x_82 + x_83 + x_84 + x_85 + x_86 + x_87 + x_88 + x_89 + x_90
   + x_91 + x_92 + x_93 + x_94 + x_95 + x_96 + x_97 + x_98 + x_99 = 5
Bounds
 x_0 <= 5
 x_1 <= 5
 x_2 <= 5
 x_3 <= 5
 x_4 <= 5
 x_5 <= 5
 x_6 <= 5
 x_7 <= 5
 x_8 <= 5
 x_9 <= 5
 x_10 <= 5
 x_11 <= 5
 x_12 <= 5
 x_13 <= 5
 x_14 <= 5
 x_15 <= 5
 x_16 <= 5
 x_17 <= 5
 x_18 <= 5
 x_19 <= 5
 x_20 <= 5
 x_21 <= 5
 x_22 <= 5
 x_23 <= 5
 x_24 <= 5
 x_25 <= 5
 x_26 <= 5
 x_27 <= 5
 x_28 <= 5
 x_29 <= 5
 x_30 <= 5
 x_31 <= 5
 x_32 <= 5
 x_33 <= 5
 x_34 <= 5
 x_35 <= 5
 x_36 <= 5
 x_37 <= 5
 x_38 <= 5
 x_39 <= 5
 x_40 <= 5
 x_41 <= 5
 x_42 <= 5
 x_43 <= 5
 x_44 <= 5
 x_45 <= 5
 x_46 <= 5
 x_47 <= 5
 x_48 <= 5
 x_49 <= 5
 x_50 <= 5
 x_51 <= 5
 x_52 <= 5
 x_53 <= 5
 x_54 <= 5
 x_55 <= 5
 x_56 <= 5
 x_57 <= 5
 x_58 <= 5
 x_59 <= 5
 x_60 <= 5
 x_61 <= 5
 x_62 <= 5
 x_63 <= 5
 x_64 <= 5
 x_65 <= 5
 x_66 <= 5
 x_67 <= 5
 x_68 <= 5
 x_69 <= 5
 x_70 <= 5
 x_71 <= 5
 x_72 <= 5
 x_73 <= 5
 x_74 <= 5
 x_75 <= 5
 x_76 <= 5
 x_77 <= 5
 x_78 <= 5
 x_79 <= 5
 x_80 <= 5
 x_81 <= 5
 x_82 <= 5
 x_83 <= 5
 x_84 <= 5
 x_85 <= 5
 x_86 <= 5
 x_87 <= 5
 x_88 <= 5
 x_89 <= 5
 x_90 <= 5
 x_91 <= 5
 x_92 <= 5
 x_93 <= 5
 x_94 <= 5
 x_95 <= 5
 x_96 <= 5
 x_97 <= 5
 x_98 <= 5
 x_99 <= 5
Generals
 x_0 x_1 x_2 x_3 x_4 x_5 x_6 x_7 x_8 x_9 x_10 x_11 x_12 x_13 x_14 x_15 x_16
 x_17 x_18 x_19 x_20 x_21 x_22 x_23 x_24 x_25 x_26 x_27 x_28 x_29 x_30 x_31
 x_32 x_33 x_34 x_35 x_36 x_37 x_38 x_39 x_40 x_41 x_42 x_43 x_44 x_45 x_46
 x_47 x_48 x_49 x_50 x_51 x_52 x_53 x_54 x_55 x_56 x_57 x_58 x_59 x_60 x_61
 x_62 x_63 x_64 x_65 x_66 x_67 x_68 x_69 x_70 x_71 x_72 x_73 x_74 x_75 x_76
 x_77 x_78 x_79 x_80 x_81 x_82 x_83 x_84 x_85 x_86 x_87 x_88 x_89 x_90 x_91
 x_92 x_93 x_94 x_95 x_96 x_97 x_98 x_99
End
